NAME 
ROWS
 N  OBJ
 L  R0      
 L  R1      
 E  R2      
 E  R3      
 E  R4      
 E  R5      
 E  R6      
 E  R7      
 E  R8      
 E  R9      
 E  R10     
 E  R11     
 E  R12     
 E  R13     
 E  R14     
 E  R15     
 E  R16     
 E  R17     
 E  R18     
 E  R19     
 E  R20     
 E  R21     
COLUMNS
    MARKER    'MARKER'                 'INTORG'
    I0(7)     OBJ       -121
    I0(7)     R0        1
    I0(7)     R1        33
    I0(7)     R2        14
    I0(7)     R5        4
    I0(7)     R6        16
    I0(7)     R7        10
    I0(7)     R21       1
    I1(10)    OBJ       68
    I1(10)    R0        38
    I1(10)    R1        -170
    I1(10)    R3        1
    I1(10)    R4        7
    I1(10)    R5        8
    I1(10)    R7        12
    I1(10)    R8        2
    I1(10)    R9        12
    I1(10)    R11       10
    I1(10)    R21       1
    I2(10)    OBJ       -191
    I2(10)    R0        21
    I2(10)    R1        131
    I2(10)    R2        9
    I2(10)    R3        13
    I2(10)    R6        6
    I2(10)    R7        9
    I2(10)    R9        11
    I2(10)    R10       7
    I2(10)    R11       5
    I2(10)    R21       1
    I3(6)     OBJ       -122
    I3(6)     R0        88
    I3(6)     R1        156
    I3(6)     R4        4
    I3(6)     R7        9
    I3(6)     R8        13
    I3(6)     R21       1
    I4(7)     OBJ       57
    I4(7)     R0        -170
    I4(7)     R1        51
    I4(7)     R3        3
    I4(7)     R4        18
    I4(7)     R9        7
    I4(7)     R10       -1
    I4(7)     R21       1
    I5(10)    OBJ       -104
    I5(10)    R0        -182
    I5(10)    R1        135
    I5(10)    R2        1
    I5(10)    R3        17
    I5(10)    R6        19
    I5(10)    R7        8
    I5(10)    R8        9
    I5(10)    R9        14
    I5(10)    R11       19
    I5(10)    R21       1
    I6(9)     OBJ       113
    I6(9)     R0        -28
    I6(9)     R1        40
    I6(9)     R2        7
    I6(9)     R4        3
    I6(9)     R6        16
    I6(9)     R8        18
    I6(9)     R9        17
    I6(9)     R11       8
    I6(9)     R21       1
    I7(10)    OBJ       -105
    I7(10)    R0        -45
    I7(10)    R1        167
    I7(10)    R3        18
    I7(10)    R4        9
    I7(10)    R5        11
    I7(10)    R6        9
    I7(10)    R7        1
    I7(10)    R8        7
    I7(10)    R11       17
    I7(10)    R21       1
    I8(7)     OBJ       112
    I8(7)     R0        153
    I8(7)     R1        184
    I8(7)     R5        17
    I8(7)     R6        5
    I8(7)     R8        3
    I8(7)     R10       16
    I8(7)     R21       1
    I9(8)     OBJ       124
    I9(8)     R0        198
    I9(8)     R1        21
    I9(8)     R2        17
    I9(8)     R3        5
    I9(8)     R5        8
    I9(8)     R7        3
    I9(8)     R9        6
    I9(8)     R21       1
    MARKER    'MARKER'                 'INTEND'
    C10(8)    OBJ       8
    C10(8)    R0        -8
    C10(8)    R1        6
    C10(8)    R2        12
    C10(8)    R6        5
    C10(8)    R9        10
    C10(8)    R13       1
    C10(8)    R14       10
    C10(8)    R15       4
    C11(15)   OBJ       -10
    C11(15)   R0        -6
    C11(15)   R1        7
    C11(15)   R3        15
    C11(15)   R4        10
    C11(15)   R5        14
    C11(15)   R7        -1
    C11(15)   R8        17
    C11(15)   R9        17
    C11(15)   R10       17
    C11(15)   R12       5
    C11(15)   R14       2
    C11(15)   R15       18
    C11(15)   R16       1
    C11(15)   R17       7
    C11(15)   R19       10
    C12(12)   R0        -5
    C12(12)   R1        -6
    C12(12)   R3        15
    C12(12)   R6        -1
    C12(12)   R7        12
    C12(12)   R8        5
    C12(12)   R9        4
    C12(12)   R12       8
    C12(12)   R14       7
    C12(12)   R16       3
    C12(12)   R18       2
    C12(12)   R19       7
    C13(13)   OBJ       -5
    C13(13)   R0        5
    C13(13)   R1        -4
    C13(13)   R3        10
    C13(13)   R4        6
    C13(13)   R5        3
    C13(13)   R7        10
    C13(13)   R8        3
    C13(13)   R9        14
    C13(13)   R10       12
    C13(13)   R13       4
    C13(13)   R16       3
    C13(13)   R17       1
    C13(13)   R18       7
    C14(6)    OBJ       -7
    C14(6)    R0        -5
    C14(6)    R1        -4
    C14(6)    R7        14
    C14(6)    R8        6
    C14(6)    R11       10
    C14(6)    R18       1
    C15(14)   OBJ       -7
    C15(14)   R0        9
    C15(14)   R1        4
    C15(14)   R2        16
    C15(14)   R3        18
    C15(14)   R5        19
    C15(14)   R7        6
    C15(14)   R8        15
    C15(14)   R11       10
    C15(14)   R12       6
    C15(14)   R13       3
    C15(14)   R14       9
    C15(14)   R15       9
    C15(14)   R19       9
    C15(14)   R20       3
    C16(13)   OBJ       9
    C16(13)   R0        -8
    C16(13)   R1        1
    C16(13)   R4        10
    C16(13)   R6        19
    C16(13)   R7        10
    C16(13)   R8        16
    C16(13)   R9        5
    C16(13)   R10       5
    C16(13)   R12       18
    C16(13)   R16       15
    C16(13)   R18       6
    C16(13)   R19       11
    C16(13)   R20       13
    C17(11)   OBJ       6
    C17(11)   R0        -8
    C17(11)   R1        9
    C17(11)   R5        19
    C17(11)   R6        17
    C17(11)   R8        18
    C17(11)   R13       3
    C17(11)   R14       4
    C17(11)   R15       7
    C17(11)   R17       6
    C17(11)   R19       12
    C17(11)   R20       11
    C18(12)   OBJ       -10
    C18(12)   R0        2
    C18(12)   R1        6
    C18(12)   R2        19
    C18(12)   R3        1
    C18(12)   R4        19
    C18(12)   R7        16
    C18(12)   R10       14
    C18(12)   R11       8
    C18(12)   R12       3
    C18(12)   R16       5
    C18(12)   R17       9
    C18(12)   R19       4
    C19(12)   OBJ       -1
    C19(12)   R0        -3
    C19(12)   R1        -9
    C19(12)   R2        4
    C19(12)   R3        13
    C19(12)   R5        19
    C19(12)   R6        11
    C19(12)   R10       10
    C19(12)   R11       6
    C19(12)   R13       14
    C19(12)   R14       -1
    C19(12)   R17       19
    C19(12)   R20       15
    C20(1)    R2        1
    C21(1)    R3        1
    C22(1)    R4        1
    C23(1)    R5        1
    C24(1)    R6        1
    C25(1)    R7        1
    C26(1)    R8        1
    C27(1)    R9        1
    C28(1)    R10       1
    C29(1)    R11       1
    C30(1)    R12       1
    C31(1)    R13       1
    C32(1)    R14       1
    C33(1)    R15       1
    C34(1)    R16       1
    C35(1)    R17       1
    C36(1)    R18       1
    C37(1)    R19       1
    C38(1)    R20       1
    C39(1)    R21       1
RHS
    RHS1      R0        1.0212324929971990e+02
    RHS1      R1        4.2411297852474326e+02
    RHS1      R2        94
    RHS1      R3        72
    RHS1      R4        69
    RHS1      R5        90
    RHS1      R6        55
    RHS1      R7        74
    RHS1      R8        89
    RHS1      R9        88
    RHS1      R10       57
    RHS1      R11       81
    RHS1      R12       83
    RHS1      R13       67
    RHS1      R14       82
    RHS1      R15       97
    RHS1      R16       76
    RHS1      R17       61
    RHS1      R18       80
    RHS1      R19       95
    RHS1      R20       80
    RHS1      R21       3
BOUNDS
 UP BND1      I0(7)     2
 UP BND1      I1(10)    2
 UP BND1      I2(10)    2
 UP BND1      I3(6)     2
 UP BND1      I4(7)     2
 UP BND1      I5(10)    2
 UP BND1      I6(9)     2
 UP BND1      I7(10)    2
 UP BND1      I8(7)     2
 UP BND1      I9(8)     2
ENDATA
